92 92
8 5
88 8
25 18
45 20
79 1
9 10
84 29
17 28
1 14
28 22
6 16
75 42
72 17
66 13
33 12
71 4
87 45
2 13
48 31
49 34
70 14
61 34
52 31
21 9
43 11
4 3
53 11
31 23
38 19
19 5
73 44
69 25
57 39
30 41
54 3
68 6
26 17
7 29
42 6
67 26
34 15
91 28
29 18
10 12
18 36
23 20
55 7
89 10
16 7
58 39
51 46
92 30
85 26
86 40
62 42
39 38
22 21
35 24
50 25
11 35
78 8
37 4
44 15
56 37
5 16
24 19
36 32
90 21
83 24
76 30
15 36
63 45
32 43
20 40
60 35
14 1
41 38
65 33
74 27
46 44
12 41
13 33
47 22
81 27
77 2
64 23
3 43
80 9
59 2
40 32
27 37
82 46
